c turning on binary mode checking
c parsing input formula with 202048 variables and 780980 clauses
c finished parsing, read 17046142 bytes from proof file
c detected empty clause; start verification via backward checking
c 18682 of 780980 clauses in core                            
c 23439 of 460259 lemmas in core using 158788 resolution steps
c 0 RAT lemmas in core; 1473 redundant literals in core lemmas
s VERIFIED
c verification time: 2.519 seconds
